(declare-fun e () String)
(declare-fun g () String)
(declare-fun d () String)
(declare-fun f () String)
(declare-fun h () String)
(assert (= "hb" (str.++ "f" e)))
(assert (= (str.++ d "f" e "bfc") (str.++ "eg" f g "a")))
(assert (= "fcc" (str.++ h "cff")))

(check-sat)
